(set-info :smt-lib-version 2.6)
(set-logic QF_LIA)
(set-info :category "industrial")
(set-info :status sat)
(declare-fun x0 () Int)
(declare-fun x1 () Int)
(declare-fun x10 () Int)
(declare-fun x11 () Int)
(declare-fun x12 () Int)
(declare-fun x13 () Int)
(declare-fun x14 () Int)
(declare-fun x15 () Int)
(declare-fun x16 () Int)
(declare-fun x17 () Int)
(declare-fun x18 () Int)
(declare-fun x19 () Int)
(declare-fun x2 () Int)
(declare-fun x3 () Int)
(declare-fun x4 () Int)
(declare-fun x5 () Int)
(declare-fun x6 () Int)
(declare-fun x7 () Int)
(declare-fun x8 () Int)
(declare-fun x9 () Int)
(assert (let ((?v_22 (* 0 x15)) (?v_3 (* 0 x19)) (?v_4 (* 0 x3)) (?v_5 (* 0 x7)) (?v_38 (* 1 x2)) (?v_34 (* 1 x4)) (?v_15 (* 0 x18)) (?v_12 (* 1 x8)) (?v_1 (* 0 x9)) (?v_6 (* 0 x0)) (?v_23 (* 0 x17)) (?v_19 (* 0 x6)) (?v_24 (* 1 x13)) (?v_44 (* 1 x7)) (?v_14 (* 0 x14)) (?v_29 (* 0 x16)) (?v_10 (* 0 x11)) (?v_11 (* 0 x4)) (?v_47 (* 1 x9)) (?v_18 (* 0 x12)) (?v_27 (* 1 x3)) (?v_41 (* 1 x15)) (?v_28 (* 2 x12)) (?v_25 (* 1 x16)) (?v_31 (* 1 x19)) (?v_52 (* 1 x0)) (?v_33 (* 0 x13)) (?v_53 (* 0 x8)) (?v_32 (* 1 x5)) (?v_39 (* 0 x10)) (?v_37 (* 1 x18)) (?v_56 (* 1 x1)) (?v_60 (* 1 x10)) (?v_35 (* 1 x6)) (?v_42 (* 0 x2)) (?v_40 (* 1 x12)) (?v_59 (* 1 x17)) (?v_55 (* 2 x6)) (?v_48 (* 1 x11)) (?v_49 (* 0 x1)) (?v_51 (* 0 x5)) (?v_57 (* 2 x17)) (?v_58 (* 2 x0)) (?v_62 (* 2 x5)) (?v_2 (* (- 1) x0)) (?v_0 (* (- 1) x1)) (?v_26 (* (- 1) x14)) (?v_9 (* (- 1) x5)) (?v_54 (* (- 1) x6)) (?v_16 (* (- 1) x16)) (?v_7 (* (- 1) x10)) (?v_43 (* (- 1) x15)) (?v_8 (* (- 1) x17)) (?v_21 (* (- 1) x2)) (?v_13 (* (- 1) x13)) (?v_17 (* (- 1) x19)) (?v_45 (* (- 2) x15)) (?v_20 (* (- 1) x11)) (?v_30 (* (- 1) x18)) (?v_36 (* (- 1) x7)) (?v_46 (* (- 1) x8)) (?v_50 (* (- 1) x4)) (?v_61 (* (- 1) x9))) (and (<= (+ ?v_2 (+ ?v_0 (+ ?v_26 (+ ?v_22 (+ ?v_3 (+ ?v_4 (+ ?v_5 (+ ?v_38 (+ ?v_34 (+ ?v_9 (+ ?v_54 (+ ?v_15 (+ ?v_12 ?v_1))))))))))))) 0) (<= (+ ?v_6 (+ ?v_0 (+ (* (- 1) x12) (+ ?v_16 (+ (* (- 1) x3) (+ ?v_23 (+ ?v_19 (+ ?v_1 (+ ?v_24 (+ ?v_44 (* 2 x11))))))))))) 0) (<= (+ ?v_2 (+ ?v_7 (+ ?v_14 (+ ?v_43 (+ ?v_29 (+ ?v_8 (+ ?v_3 (+ ?v_21 (+ ?v_10 (+ ?v_4 (+ ?v_11 (+ ?v_5 ?v_47)))))))))))) 0) (<= (+ ?v_6 (+ ?v_0 (+ ?v_7 (+ ?v_13 (+ (* 1 x14) (+ ?v_8 (+ ?v_17 (+ ?v_9 (+ ?v_10 (+ ?v_18 (+ ?v_11 (+ ?v_27 (+ ?v_5 (+ ?v_12 (+ ?v_1 ?v_41))))))))))))))) 0) (<= (+ ?v_45 (+ ?v_2 (+ ?v_7 (+ ?v_28 (+ ?v_13 (+ ?v_14 (+ ?v_25 (+ ?v_15 (+ ?v_5 (+ ?v_31 ?v_12)))))))))) 0) (<= (+ ?v_52 (+ ?v_0 (+ ?v_7 (+ ?v_20 (+ ?v_16 (+ ?v_8 (+ ?v_17 (+ ?v_18 (+ ?v_33 (+ ?v_4 (+ ?v_19 (+ ?v_5 (+ ?v_53 ?v_32))))))))))))) 0) (<= (+ ?v_6 (+ ?v_39 (+ ?v_20 (+ ?v_21 (+ ?v_18 (+ ?v_14 (+ ?v_22 (+ ?v_23 (+ ?v_24 (+ ?v_25 (+ ?v_37 (+ ?v_12 (* 2 x19))))))))))))) 1) (<= (+ ?v_2 (+ ?v_56 (+ ?v_20 (+ ?v_26 (+ ?v_25 (+ ?v_23 (+ ?v_3 (+ ?v_11 (+ ?v_27 (+ ?v_28 ?v_30)))))))))) 0) (<= (+ ?v_60 (+ ?v_20 (+ ?v_13 (+ ?v_29 (+ ?v_8 (+ ?v_30 (+ ?v_5 (+ ?v_31 (+ ?v_27 (+ ?v_1 (+ ?v_32 ?v_35))))))))))) (- 1)) (<= (+ ?v_20 (+ ?v_36 (+ ?v_46 (+ ?v_22 (+ ?v_29 (+ ?v_42 (+ ?v_40 (+ ?v_33 (+ ?v_27 (+ ?v_34 ?v_35)))))))))) (- 1)) (<= (+ ?v_2 (+ ?v_20 (+ ?v_8 (+ ?v_17 (+ ?v_50 (+ ?v_27 (+ ?v_9 (+ ?v_36 (+ ?v_18 (+ ?v_24 (+ ?v_37 ?v_38))))))))))) 0) (<= (+ ?v_2 (+ ?v_39 (+ ?v_40 (+ ?v_24 (+ ?v_41 (+ ?v_30 (+ ?v_10 (+ ?v_3 (+ ?v_42 (+ ?v_4 (+ ?v_19 ?v_5))))))))))) (- 1)) (<= (+ (* (- 3) x5) (+ ?v_7 (+ ?v_14 (+ ?v_43 (+ ?v_40 (+ ?v_25 (+ ?v_59 (+ ?v_30 (+ ?v_10 (+ ?v_31 (+ ?v_42 (+ ?v_44 ?v_55)))))))))))) 0) (<= (+ ?v_45 (+ (* 2 x1) (+ ?v_39 (+ ?v_29 (+ ?v_40 (+ ?v_30 (+ ?v_17 (+ ?v_46 (+ ?v_11 (+ ?v_48 (+ ?v_38 (+ ?v_32 (+ ?v_35 ?v_47))))))))))))) (- 1)) (<= (+ ?v_26 (+ ?v_16 (+ ?v_17 (+ ?v_6 (+ ?v_49 (+ ?v_39 (+ ?v_22 (+ ?v_23 (+ ?v_28 (+ ?v_30 (+ ?v_21 (+ ?v_27 (+ ?v_51 (+ ?v_5 ?v_48)))))))))))))) 1) (<= (+ ?v_13 (+ ?v_36 (+ ?v_49 (+ ?v_4 (+ ?v_11 (+ ?v_41 (+ ?v_57 (+ ?v_38 (+ ?v_19 (+ ?v_1 (+ ?v_32 (+ ?v_12 (+ (* 2 x10) (* 3 x12)))))))))))))) 0) (<= (+ ?v_16 (+ ?v_8 (+ ?v_50 (+ ?v_49 (+ ?v_33 (+ ?v_22 (+ ?v_3 (+ ?v_19 (+ ?v_5 (+ ?v_48 (+ ?v_38 ?v_32))))))))))) 0) (<= (+ (* (- 2) x16) (+ ?v_36 (+ ?v_6 (+ ?v_39 (+ ?v_40 (+ ?v_33 (+ ?v_14 (+ ?v_22 (+ ?v_3 (+ ?v_42 (+ ?v_34 (+ ?v_51 ?v_12)))))))))))) 0) (<= (+ ?v_36 (+ ?v_52 (+ ?v_49 (+ ?v_39 (+ ?v_10 (+ ?v_18 (+ ?v_29 (+ ?v_3 (+ ?v_11 (+ ?v_41 (+ ?v_38 (+ ?v_51 (+ ?v_53 (+ ?v_1 ?v_35)))))))))))))) 0) (<= (+ ?v_54 (+ ?v_46 (+ ?v_58 (+ ?v_49 (+ ?v_39 (+ ?v_40 (+ ?v_33 (+ ?v_14 (+ ?v_4 (+ ?v_51 (+ ?v_37 ?v_44))))))))))) (- 1)) (<= (+ ?v_2 (+ ?v_21 (+ ?v_49 (+ ?v_7 (+ ?v_10 (+ ?v_51 (+ ?v_40 (+ ?v_24 (+ ?v_41 (+ ?v_15 (+ ?v_55 (* 2 x9)))))))))))) 1) (<= (+ ?v_43 (+ ?v_54 (+ ?v_6 (+ ?v_33 (+ ?v_14 (+ ?v_29 (+ ?v_23 (+ ?v_15 (+ ?v_3 (+ ?v_42 (+ ?v_4 (+ ?v_12 ?v_47)))))))))))) 0) (<= (+ ?v_50 (+ ?v_18 (+ ?v_33 (+ ?v_14 (+ ?v_22 (+ ?v_29 (+ ?v_56 (+ ?v_15 (+ ?v_5 (+ ?v_48 (+ (* 2 x8) (+ ?v_47 ?v_62)))))))))))) 1) (<= (+ ?v_45 (+ ?v_17 (+ ?v_6 (+ ?v_11 (+ ?v_51 (+ ?v_1 (+ ?v_56 (+ ?v_24 (+ ?v_12 (+ ?v_57 ?v_38)))))))))) 1) (<= (+ ?v_16 (+ ?v_50 (+ ?v_18 (+ ?v_1 (+ ?v_56 (+ ?v_48 (+ ?v_27 (+ ?v_32 (+ ?v_44 (+ ?v_12 ?v_55)))))))))) (- 1)) (<= (+ ?v_26 (+ ?v_50 (+ ?v_9 (+ ?v_61 (+ ?v_18 (+ ?v_29 (+ ?v_4 (+ ?v_58 (+ ?v_56 (+ ?v_20 (+ ?v_41 (+ ?v_59 (+ ?v_38 (+ ?v_35 ?v_44)))))))))))))) 0) (<= (+ ?v_26 (+ ?v_17 (+ ?v_6 (+ ?v_60 (+ ?v_10 (+ ?v_29 (+ ?v_23 (+ ?v_11 (+ ?v_24 (+ ?v_32 ?v_12)))))))))) 1) (<= (+ ?v_2 (+ ?v_0 (+ ?v_17 (+ ?v_50 (+ ?v_36 (+ ?v_61 (+ ?v_42 (+ ?v_4 (+ ?v_19 (+ ?v_60 (+ ?v_24 (+ ?v_59 (+ ?v_30 ?v_12))))))))))))) 1) (<= (+ ?v_26 (+ ?v_54 (+ ?v_6 (+ ?v_18 (+ ?v_22 (+ ?v_4 (+ ?v_11 (+ ?v_51 (+ ?v_48 (+ ?v_37 (+ ?v_31 (* 2 x7)))))))))))) 1) (<= (+ ?v_21 (+ ?v_61 (+ ?v_18 (+ ?v_33 (+ ?v_14 (+ ?v_22 (+ ?v_23 (+ ?v_3 (+ ?v_4 (+ ?v_53 (+ ?v_48 (+ ?v_35 (+ (* 2 x18) ?v_62))))))))))))) 0))))
(check-sat)
(exit)
